(set-logic ALL)
(declare-const k Int)
(declare-fun s () (_ BitVec k))
(declare-fun t () (_ BitVec k))
(assert (distinct (bvshl s (bvudiv (_ bv0 k) (bvudiv (_ bv1 k) t))) (bvadd s (bvudiv (_ bv0 k) (bvlshr t (_ bv1 k))))))
(check-sat)
